Route #1: 82 12 87 86 74 
Route #2: 64 99 57 22 20 66 
Route #3: 69 98 88 53 90 
Route #4: 14 47 16 15 11 9 13 10 17 
Route #5: 42 44 61 81 
Route #6: 45 5 8 7 6 46 3 1 4 100 70 
Route #7: 31 29 27 28 26 32 89 
Route #8: 2 79 73 78 60 55 
Route #9: 92 95 62 33 30 34 50 93 
Route #10: 83 23 21 19 49 18 48 25 24 
Route #11: 63 76 51 85 84 56 91 80 
Route #12: 71 67 94 96 54 68 
Route #13: 72 39 36 40 38 41 43 37 35 
Route #14: 65 52 59 75 97 58 77 
Objective: 284894.9
